objective value:                                12822
t_x_1                                               1 	(obj:36)
t_x_3                                               1 	(obj:47)
t_x_5                                               1 	(obj:42)
t_x_6                                               1 	(obj:20)
t_x_9                                               1 	(obj:21)
t_x_15                                              1 	(obj:62)
t_x_17                                              1 	(obj:22)
t_x_19                                              1 	(obj:12)
t_x_22                                              1 	(obj:26)
t_x_23                                              1 	(obj:8)
t_x_32                                              1 	(obj:58)
t_x_33                                              1 	(obj:12)
t_x_34                                              1 	(obj:16)
t_x_35                                              1 	(obj:38)
t_x_36                                              1 	(obj:79)
t_x_37                                              1 	(obj:49)
t_x_39                                              1 	(obj:12)
t_x_41                                              1 	(obj:26)
t_x_42                                              1 	(obj:19)
t_x_43                                              1 	(obj:52)
t_x_45                                              1 	(obj:15)
t_x_48                                              1 	(obj:0)
t_x_55                                              1 	(obj:3)
t_x_59                                              1 	(obj:6)
t_x_61                                              1 	(obj:23)
t_x_64                                              1 	(obj:26)
t_x_67                                              1 	(obj:19)
t_x_69                                              1 	(obj:11)
t_x_71                                              1 	(obj:11)
t_x_72                                              1 	(obj:28)
t_x_73                                              1 	(obj:11)
t_x_74                                              1 	(obj:21)
t_x_75                                              1 	(obj:19)
t_x_76                                              1 	(obj:2)
t_x_78                                              1 	(obj:7)
t_x_80                                              1 	(obj:26)
t_x_83                                              1 	(obj:82)
t_x_86                                              1 	(obj:0)
t_x_87                                              1 	(obj:32)
t_x_90                                              1 	(obj:45)
t_x_92                                              1 	(obj:29)
t_x_93                                              1 	(obj:25)
t_x_94                                              1 	(obj:48)
t_x_95                                              1 	(obj:2)
t_x_97                                              1 	(obj:12)
t_x_98                                              1 	(obj:34)
t_x_99                                              1 	(obj:45)
t_x_102                                             1 	(obj:6)
t_x_105                                             1 	(obj:18)
t_x_106                                             1 	(obj:23)
t_x_109                                             1 	(obj:31)
t_x_113                                             1 	(obj:21)
t_x_118                                             1 	(obj:2)
t_x_119                                             1 	(obj:7)
t_x_123                                             1 	(obj:26)
t_x_128                                             1 	(obj:8)
t_x_131                                             1 	(obj:5)
t_x_136                                             1 	(obj:10)
t_x_142                                             1 	(obj:33)
t_x_146                                             1 	(obj:15)
t_x_149                                             1 	(obj:32)
t_x_152                                             1 	(obj:37)
t_x_153                                             1 	(obj:35)
t_x_154                                             1 	(obj:39)
t_x_156                                             1 	(obj:9)
t_x_158                                             1 	(obj:12)
t_x_160                                             1 	(obj:65)
t_x_161                                             1 	(obj:26)
t_x_168                                             1 	(obj:24)
t_x_169                                             1 	(obj:30)
t_x_171                                             1 	(obj:31)
t_x_172                                             1 	(obj:21)
t_x_174                                             1 	(obj:13)
t_x_175                                             1 	(obj:12)
t_x_176                                             1 	(obj:3)
t_x_178                                             1 	(obj:12)
t_x_179                                             1 	(obj:23)
t_x_181                                             1 	(obj:30)
t_x_182                                             1 	(obj:17)
t_x_183                                             1 	(obj:2)
t_x_185                                             1 	(obj:37)
t_x_188                                             1 	(obj:52)
t_x_193                                             1 	(obj:15)
t_x_194                                             1 	(obj:19)
t_x_199                                             1 	(obj:49)
t_x_202                                             1 	(obj:12)
t_x_210                                             1 	(obj:23)
t_x_213                                             1 	(obj:18)
t_x_214                                             1 	(obj:21)
t_x_215                                             1 	(obj:32)
t_x_217                                             1 	(obj:30)
t_x_236                                             1 	(obj:38)
t_x_238                                             1 	(obj:0)
t_x_239                                             1 	(obj:22)
t_x_247                                             1 	(obj:34)
t_x_249                                             1 	(obj:6)
t_x_250                                             1 	(obj:19)
t_x_251                                             1 	(obj:27)
t_x_252                                             1 	(obj:25)
t_x_254                                             1 	(obj:28)
t_x_257                                             1 	(obj:41)
t_x_263                                             1 	(obj:47)
t_x_265                                             1 	(obj:1)
t_x_269                                             1 	(obj:27)
t_x_271                                             1 	(obj:22)
t_x_279                                             1 	(obj:29)
t_x_281                                             1 	(obj:18)
t_x_285                                             1 	(obj:19)
t_x_291                                             1 	(obj:7)
t_x_294                                             1 	(obj:33)
t_x_295                                             1 	(obj:11)
t_x_296                                             1 	(obj:21)
t_x_297                                             1 	(obj:25)
t_x_299                                             1 	(obj:14)
t_x_303                                             1 	(obj:3)
t_x_304                                             1 	(obj:39)
t_x_311                                             1 	(obj:7)
t_x_313                                             1 	(obj:13)
t_x_314                                             1 	(obj:3)
t_x_316                                             1 	(obj:36)
t_x_317                                             1 	(obj:21)
t_x_318                                             1 	(obj:27)
t_x_325                                             1 	(obj:9)
t_x_326                                             1 	(obj:1)
t_x_329                                             1 	(obj:32)
t_x_330                                             1 	(obj:35)
t_x_332                                             1 	(obj:18)
t_x_335                                             1 	(obj:26)
t_x_337                                             1 	(obj:14)
t_x_338                                             1 	(obj:21)
t_x_339                                             1 	(obj:27)
t_x_340                                             1 	(obj:20)
t_x_341                                             1 	(obj:4)
t_x_343                                             1 	(obj:33)
t_x_351                                             1 	(obj:2)
t_x_354                                             1 	(obj:5)
t_x_359                                             1 	(obj:18)
t_x_367                                             1 	(obj:9)
t_x_368                                             1 	(obj:65)
t_x_369                                             1 	(obj:6)
t_x_373                                             1 	(obj:58)
t_x_380                                             1 	(obj:0)
t_x_382                                             1 	(obj:23)
t_x_384                                             1 	(obj:22)
t_x_389                                             1 	(obj:26)
t_x_390                                             1 	(obj:28)
t_x_391                                             1 	(obj:9)
t_x_394                                             1 	(obj:36)
t_x_396                                             1 	(obj:28)
t_x_401                                             1 	(obj:10)
t_x_404                                             1 	(obj:13)
t_x_405                                             1 	(obj:20)
t_x_411                                             1 	(obj:3)
t_x_414                                             1 	(obj:10)
t_x_418                                             1 	(obj:22)
t_x_419                                             1 	(obj:25)
t_x_421                                             1 	(obj:7)
t_x_430                                             1 	(obj:15)
t_x_431                                             1 	(obj:44)
t_x_434                                             1 	(obj:4)
t_x_438                                             1 	(obj:10)
t_x_439                                             1 	(obj:1)
t_x_440                                             1 	(obj:13)
t_x_443                                             1 	(obj:17)
t_x_445                                             1 	(obj:16)
t_x_447                                             1 	(obj:6)
t_x_448                                             1 	(obj:24)
t_x_457                                             1 	(obj:0)
t_x_458                                             1 	(obj:6)
t_x_462                                             1 	(obj:15)
t_x_463                                             1 	(obj:59)
t_x_464                                             1 	(obj:23)
t_x_467                                             1 	(obj:19)
t_x_477                                             1 	(obj:12)
t_x_481                                             1 	(obj:25)
t_x_489                                             1 	(obj:18)
t_x_491                                             1 	(obj:40)
t_x_492                                             1 	(obj:4)
t_x_495                                             1 	(obj:7)
t_x_497                                             1 	(obj:4)
t_x_498                                             1 	(obj:17)
t_x_499                                             1 	(obj:34)
t_x_502                                             1 	(obj:12)
t_x_503                                             1 	(obj:56)
t_x_504                                             1 	(obj:36)
t_x_506                                             1 	(obj:8)
t_x_513                                             1 	(obj:37)
t_x_516                                             1 	(obj:6)
t_x_517                                             1 	(obj:54)
t_x_520                                             1 	(obj:0)
t_x_521                                             1 	(obj:12)
t_x_524                                             1 	(obj:0)
t_x_527                                             1 	(obj:35)
t_x_529                                             1 	(obj:13)
t_x_532                                             1 	(obj:0)
t_x_533                                             1 	(obj:16)
t_x_537                                             1 	(obj:63)
t_x_538                                             1 	(obj:24)
t_x_539                                             1 	(obj:16)
t_x_541                                             1 	(obj:5)
t_x_545                                             1 	(obj:37)
t_x_548                                             1 	(obj:53)
t_x_550                                             1 	(obj:7)
t_x_555                                             1 	(obj:0)
t_x_558                                             1 	(obj:20)
t_x_562                                             1 	(obj:10)
t_x_563                                             1 	(obj:12)
t_x_564                                             1 	(obj:25)
t_x_567                                             1 	(obj:7)
t_x_568                                             1 	(obj:6)
t_x_576                                             1 	(obj:10)
t_x_579                                             1 	(obj:10)
t_x_582                                             1 	(obj:22)
t_x_590                                             1 	(obj:29)
t_x_594                                             1 	(obj:49)
t_x_612                                             1 	(obj:33)
t_x_616                                             1 	(obj:21)
t_x_619                                             1 	(obj:2)
t_x_620                                             1 	(obj:44)
t_x_623                                             1 	(obj:9)
t_x_625                                             1 	(obj:30)
t_x_627                                             1 	(obj:35)
t_x_629                                             1 	(obj:43)
t_x_630                                             1 	(obj:8)
t_x_634                                             1 	(obj:6)
t_x_636                                             1 	(obj:19)
t_x_637                                             1 	(obj:0)
t_x_639                                             1 	(obj:30)
t_x_642                                             1 	(obj:71)
t_x_644                                             1 	(obj:11)
t_x_646                                             1 	(obj:30)
t_x_647                                             1 	(obj:51)
t_x_648                                             1 	(obj:23)
t_x_649                                             1 	(obj:31)
t_x_651                                             1 	(obj:37)
t_x_660                                             1 	(obj:43)
t_x_662                                             1 	(obj:25)
t_x_665                                             1 	(obj:28)
t_x_671                                             1 	(obj:11)
t_x_673                                             1 	(obj:15)
t_x_674                                             1 	(obj:20)
t_x_684                                             1 	(obj:21)
t_x_699                                             1 	(obj:5)
t_x_701                                             1 	(obj:11)
t_x_706                                             1 	(obj:14)
t_x_709                                             1 	(obj:13)
t_x_714                                             1 	(obj:7)
t_x_719                                             1 	(obj:22)
t_x_721                                             1 	(obj:9)
t_x_723                                             1 	(obj:13)
t_x_725                                             1 	(obj:13)
t_x_728                                             1 	(obj:35)
t_x_729                                             1 	(obj:37)
t_x_733                                             1 	(obj:4)
t_x_739                                             1 	(obj:15)
t_x_750                                             1 	(obj:0)
t_x_751                                             1 	(obj:12)
t_x_753                                             1 	(obj:6)
t_x_756                                             1 	(obj:39)
t_x_757                                             1 	(obj:8)
t_x_763                                             1 	(obj:4)
t_x_764                                             1 	(obj:53)
t_x_766                                             1 	(obj:21)
t_x_769                                             1 	(obj:41)
t_x_770                                             1 	(obj:0)
t_x_779                                             1 	(obj:23)
t_x_780                                             1 	(obj:13)
t_x_784                                             1 	(obj:8)
t_x_785                                             1 	(obj:8)
t_x_788                                             1 	(obj:27)
t_x_791                                             1 	(obj:6)
t_x_795                                             1 	(obj:14)
t_x_797                                             1 	(obj:8)
t_x_807                                             1 	(obj:30)
t_x_808                                             1 	(obj:1)
t_x_813                                             1 	(obj:21)
t_x_814                                             1 	(obj:51)
t_x_816                                             1 	(obj:13)
t_x_817                                             1 	(obj:2)
t_x_819                                             1 	(obj:7)
t_x_821                                             1 	(obj:6)
t_x_828                                             1 	(obj:12)
t_x_830                                             1 	(obj:22)
t_x_832                                             1 	(obj:22)
t_x_834                                             1 	(obj:23)
t_x_838                                             1 	(obj:8)
t_x_842                                             1 	(obj:20)
t_x_845                                             1 	(obj:41)
t_x_848                                             1 	(obj:11)
t_x_849                                             1 	(obj:13)
t_x_852                                             1 	(obj:11)
t_x_853                                             1 	(obj:2)
t_x_856                                             1 	(obj:10)
t_x_858                                             1 	(obj:5)
t_x_861                                             1 	(obj:23)
t_x_862                                             1 	(obj:26)
t_x_882                                             1 	(obj:15)
t_x_883                                             1 	(obj:20)
t_x_887                                             1 	(obj:11)
t_x_888                                             1 	(obj:29)
t_x_898                                             1 	(obj:4)
t_x_906                                             1 	(obj:3)
t_x_909                                             1 	(obj:19)
t_x_910                                             1 	(obj:14)
t_x_912                                             1 	(obj:14)
t_x_918                                             1 	(obj:51)
t_x_923                                             1 	(obj:40)
t_x_924                                             1 	(obj:31)
t_x_933                                             1 	(obj:38)
t_x_937                                             1 	(obj:21)
t_x_938                                             1 	(obj:5)
t_x_939                                             1 	(obj:18)
t_x_940                                             1 	(obj:4)
t_x_941                                             1 	(obj:15)
t_x_948                                             1 	(obj:17)
t_x_950                                             1 	(obj:32)
t_x_952                                             1 	(obj:32)
t_x_956                                             1 	(obj:72)
t_x_958                                             1 	(obj:21)
t_x_959                                             1 	(obj:27)
t_x_960                                             1 	(obj:27)
t_x_966                                             1 	(obj:9)
t_x_968                                             1 	(obj:50)
t_x_969                                             1 	(obj:42)
t_x_970                                             1 	(obj:8)
t_x_973                                             1 	(obj:6)
t_x_979                                             1 	(obj:2)
t_x_985                                             1 	(obj:38)
t_x_989                                             1 	(obj:8)
t_x_991                                             1 	(obj:11)
t_x_994                                             1 	(obj:16)
t_x_995                                             1 	(obj:57)
t_x_997                                             1 	(obj:24)
t_x_998                                             1 	(obj:8)
t_x_1015                                            1 	(obj:54)
t_x_1017                                            1 	(obj:9)
t_x_1025                                            1 	(obj:62)
t_x_1037                                            1 	(obj:14)
t_x_1041                                            1 	(obj:0)
t_x_1042                                            1 	(obj:23)
t_x_1043                                            1 	(obj:36)
t_x_1045                                            1 	(obj:7)
t_x_1050                                            1 	(obj:45)
t_x_1052                                            1 	(obj:21)
t_x_1055                                            1 	(obj:5)
t_x_1057                                            1 	(obj:30)
t_x_1059                                            1 	(obj:10)
t_x_1060                                            1 	(obj:53)
t_x_1062                                            1 	(obj:13)
t_x_1064                                            1 	(obj:57)
t_x_1074                                            1 	(obj:35)
t_x_1075                                            1 	(obj:16)
t_x_1078                                            1 	(obj:11)
t_x_1082                                            1 	(obj:0)
t_x_1083                                            1 	(obj:49)
t_x_1088                                            1 	(obj:43)
t_x_1091                                            1 	(obj:30)
t_x_1092                                            1 	(obj:4)
t_x_1095                                            1 	(obj:27)
t_x_1098                                            1 	(obj:11)
t_x_1099                                            1 	(obj:37)
t_x_1104                                            1 	(obj:16)
t_x_1105                                            1 	(obj:11)
t_x_1109                                            1 	(obj:3)
t_x_1113                                            1 	(obj:28)
t_x_1122                                            1 	(obj:7)
t_x_1123                                            1 	(obj:35)
t_x_1125                                            1 	(obj:3)
t_x_1133                                            1 	(obj:11)
t_x_1135                                            1 	(obj:17)
t_x_1138                                            1 	(obj:38)
t_x_1140                                            1 	(obj:1)
t_x_1142                                            1 	(obj:2)
t_x_1143                                            1 	(obj:36)
t_x_1145                                            1 	(obj:16)
t_x_1155                                            1 	(obj:38)
t_x_1158                                            1 	(obj:29)
t_x_1161                                            1 	(obj:23)
t_x_1163                                            1 	(obj:19)
t_x_1173                                            1 	(obj:3)
t_x_1178                                            1 	(obj:32)
t_x_1179                                            1 	(obj:13)
t_x_1187                                            1 	(obj:11)
t_x_1190                                            1 	(obj:49)
t_x_1191                                            1 	(obj:10)
t_x_1193                                            1 	(obj:9)
t_x_1194                                            1 	(obj:10)
t_x_1195                                            1 	(obj:11)
t_x_1197                                            1 	(obj:6)
t_x_1198                                            1 	(obj:2)
t_x_1209                                            1 	(obj:2)
t_x_1212                                            1 	(obj:6)
t_x_1215                                            1 	(obj:31)
t_x_1216                                            1 	(obj:4)
t_x_1218                                            1 	(obj:0)
t_x_1219                                            1 	(obj:50)
t_x_1225                                            1 	(obj:10)
t_x_1228                                            1 	(obj:16)
t_x_1229                                            1 	(obj:5)
t_x_1233                                            1 	(obj:62)
t_x_1234                                            1 	(obj:3)
t_x_1237                                            1 	(obj:46)
t_x_1242                                            1 	(obj:13)
t_x_1246                                            1 	(obj:2)
t_x_1247                                            1 	(obj:4)
t_x_1253                                            1 	(obj:49)
t_x_1255                                            1 	(obj:27)
t_x_1257                                            1 	(obj:4)
t_x_1258                                            1 	(obj:47)
t_x_1259                                            1 	(obj:53)
t_x_1261                                            1 	(obj:10)
t_x_1262                                            1 	(obj:20)
t_x_1263                                            1 	(obj:1)
t_x_1267                                            1 	(obj:6)
t_x_1273                                            1 	(obj:2)
t_x_1274                                            1 	(obj:66)
t_x_1279                                            1 	(obj:10)
t_x_1283                                            1 	(obj:32)
t_x_1298                                            1 	(obj:15)
t_x_1303                                            1 	(obj:28)
t_x_1305                                            1 	(obj:39)
t_x_1307                                            1 	(obj:5)
t_x_1309                                            1 	(obj:71)
t_x_1316                                            1 	(obj:10)
t_x_1319                                            1 	(obj:27)
t_x_1320                                            1 	(obj:36)
t_x_1327                                            1 	(obj:22)
t_x_1329                                            1 	(obj:11)
t_x_1335                                            1 	(obj:29)
t_x_1337                                            1 	(obj:33)
t_x_1340                                            1 	(obj:4)
t_x_1342                                            1 	(obj:30)
t_x_1348                                            1 	(obj:22)
t_x_1356                                            1 	(obj:14)
t_x_1358                                            1 	(obj:3)
t_x_1360                                            1 	(obj:29)
t_x_1364                                            1 	(obj:3)
t_x_1367                                            1 	(obj:2)
t_x_1375                                            1 	(obj:78)
t_x_1377                                            1 	(obj:12)
t_x_1378                                            1 	(obj:21)
t_x_1380                                            1 	(obj:38)
t_x_1382                                            1 	(obj:19)
t_x_1385                                            1 	(obj:22)
t_x_1386                                            1 	(obj:44)
t_x_1388                                            1 	(obj:2)
t_x_1389                                            1 	(obj:12)
t_x_1391                                            1 	(obj:15)
t_x_1394                                            1 	(obj:0)
t_x_1399                                            1 	(obj:23)
t_x_1403                                            1 	(obj:7)
t_x_1405                                            1 	(obj:4)
t_x_1406                                            1 	(obj:42)
t_x_1414                                            1 	(obj:50)
t_x_1425                                            1 	(obj:33)
t_x_1427                                            1 	(obj:13)
t_x_1428                                            1 	(obj:28)
t_x_1431                                            1 	(obj:0)
t_x_1434                                            1 	(obj:11)
t_x_1442                                            1 	(obj:9)
t_x_1447                                            1 	(obj:24)
t_x_1451                                            1 	(obj:31)
t_x_1452                                            1 	(obj:17)
t_x_1453                                            1 	(obj:6)
t_x_1454                                            1 	(obj:3)
t_x_1463                                            1 	(obj:37)
t_x_1467                                            1 	(obj:28)
t_x_1468                                            1 	(obj:22)
t_x_1473                                            1 	(obj:3)
t_x_1476                                            1 	(obj:22)
t_x_1479                                            1 	(obj:23)
t_x_1480                                            1 	(obj:29)
t_x_1481                                            1 	(obj:55)
t_x_1497                                            1 	(obj:33)
t_x_1498                                            1 	(obj:30)
t_x_1500                                            1 	(obj:19)
t_x_1501                                            1 	(obj:22)
t_x_1508                                            1 	(obj:12)
t_x_1511                                            1 	(obj:30)
t_x_1512                                            1 	(obj:26)
t_x_1520                                            1 	(obj:4)
t_x_1526                                            1 	(obj:13)
t_x_1527                                            1 	(obj:7)
t_x_1529                                            1 	(obj:1)
t_x_1530                                            1 	(obj:24)
t_x_1531                                            1 	(obj:12)
t_x_1535                                            1 	(obj:28)
t_x_1537                                            1 	(obj:20)
t_x_1544                                            1 	(obj:16)
t_x_1550                                            1 	(obj:9)
t_x_1553                                            1 	(obj:7)
t_x_1563                                            1 	(obj:7)
t_x_1566                                            1 	(obj:0)
t_x_1567                                            1 	(obj:38)
t_x_1573                                            1 	(obj:24)
t_x_1579                                            1 	(obj:33)
t_x_1590                                            1 	(obj:17)
t_x_1592                                            1 	(obj:11)
t_x_1598                                            1 	(obj:18)
t_x_1600                                            1 	(obj:52)
t_x_1603                                            1 	(obj:38)
t_x_1606                                            1 	(obj:0)
t_x_1618                                            1 	(obj:3)
t_x_1619                                            1 	(obj:23)
t_x_1625                                            1 	(obj:17)
t_x_1642                                            1 	(obj:9)
t_x_1645                                            1 	(obj:13)
t_x_1646                                            1 	(obj:52)
t_x_1647                                            1 	(obj:12)
t_x_1651                                            1 	(obj:8)
t_x_1652                                            1 	(obj:10)
t_x_1658                                            1 	(obj:21)
t_x_1661                                            1 	(obj:14)
t_x_1664                                            1 	(obj:11)
t_x_1665                                            1 	(obj:10)
t_x_1674                                            1 	(obj:9)
t_x_1679                                            1 	(obj:2)
t_x_1681                                            1 	(obj:7)
t_x_1682                                            1 	(obj:40)
t_x_1683                                            1 	(obj:16)
t_x_1687                                            1 	(obj:28)
t_x_1689                                            1 	(obj:35)
t_x_1692                                            1 	(obj:11)
t_x_1696                                            1 	(obj:7)
t_x_1700                                            1 	(obj:10)
t_x_1701                                            1 	(obj:55)
t_x_1703                                            1 	(obj:30)
t_x_1708                                            1 	(obj:23)
t_x_1711                                            1 	(obj:6)
t_x_1713                                            1 	(obj:25)
t_x_1715                                            1 	(obj:24)
t_x_1720                                            1 	(obj:1)
t_x_1727                                            1 	(obj:6)
t_x_1730                                            1 	(obj:13)
t_x_1737                                            1 	(obj:0)
t_x_1739                                            1 	(obj:10)
t_x_1740                                            1 	(obj:37)
t_x_1745                                            1 	(obj:9)
t_x_1746                                            1 	(obj:14)
t_x_1748                                            1 	(obj:19)
t_x_1755                                            1 	(obj:17)
t_x_1756                                            1 	(obj:0)
t_x_1767                                            1 	(obj:8)
t_x_1768                                            1 	(obj:18)
t_x_1769                                            1 	(obj:5)
t_x_1771                                            1 	(obj:10)
t_x_1774                                            1 	(obj:19)
t_x_1780                                            1 	(obj:10)
t_x_1781                                            1 	(obj:55)
t_x_1788                                            1 	(obj:13)
t_x_1791                                            1 	(obj:31)
t_x_1793                                            1 	(obj:12)
t_x_1794                                            1 	(obj:8)
t_x_1795                                            1 	(obj:33)
t_x_1796                                            1 	(obj:42)
t_x_1798                                            1 	(obj:5)
t_x_1805                                            1 	(obj:62)
t_x_1808                                            1 	(obj:14)
t_x_1810                                            1 	(obj:5)
t_x_1825                                            1 	(obj:26)
t_x_1831                                            1 	(obj:5)
t_x_1834                                            1 	(obj:31)
t_x_1835                                            1 	(obj:18)
t_x_1837                                            1 	(obj:16)
t_x_1844                                            1 	(obj:9)
t_x_1846                                            1 	(obj:5)
t_x_1847                                            1 	(obj:16)
t_x_1850                                            1 	(obj:28)
t_x_1852                                            1 	(obj:17)
t_x_1860                                            1 	(obj:1)
t_x_1861                                            1 	(obj:14)
t_x_1862                                            1 	(obj:11)
t_x_1872                                            1 	(obj:5)
t_x_1882                                            1 	(obj:33)
t_x_1885                                            1 	(obj:38)
t_x_1886                                            1 	(obj:38)
t_x_1889                                            1 	(obj:46)
t_x_1891                                            1 	(obj:69)
t_x_1893                                            1 	(obj:19)
t_x_1901                                            1 	(obj:0)
t_x_1904                                            1 	(obj:38)
t_x_1905                                            1 	(obj:47)
t_x_1906                                            1 	(obj:3)
t_x_1909                                            1 	(obj:18)
t_x_1912                                            1 	(obj:7)
t_x_1918                                            1 	(obj:11)
t_x_1920                                            1 	(obj:5)
t_x_1922                                            1 	(obj:1)
t_x_1923                                            1 	(obj:2)
t_x_1924                                            1 	(obj:22)
t_x_1926                                            1 	(obj:71)
t_x_1927                                            1 	(obj:14)
t_x_1932                                            1 	(obj:1)
t_x_1936                                            1 	(obj:16)
t_x_1938                                            1 	(obj:30)
t_x_1940                                            1 	(obj:7)
t_x_1950                                            1 	(obj:26)
t_x_1954                                            1 	(obj:13)
t_x_1964                                            1 	(obj:38)
t_x_1965                                            1 	(obj:19)
t_x_1966                                            1 	(obj:7)
t_x_1969                                            1 	(obj:20)
t_x_1970                                            1 	(obj:24)
t_x_1974                                            1 	(obj:17)
t_x_1977                                            1 	(obj:58)
t_x_1983                                            1 	(obj:79)
t_x_1986                                            1 	(obj:22)
t_x_1991                                            1 	(obj:6)
t_x_1992                                            1 	(obj:3)
t_x_1993                                            1 	(obj:19)
t_x_1997                                            1 	(obj:15)
t_x_1998                                            1 	(obj:51)
